benchmark_instances/dzn_benchmark_instances/benchmark_instance_7-2.dzn
% Input: sequence of points
seq_points = [|4,1
              |5,1
              |2,2
              |4,2
              |2,4
              |1,5
              |2,5
              |5,5
              |1,6
              |2,6
              |7,0
              |7,7
              |0,4
              |0,5
              |0,7
              |0,0
             |];

num_points = 16;
