benchmark_instances/lp_benchmark_instances/benchmark_instance_7-2.lp
% Input: sequence of points
point(4,1).
point(5,1).
point(2,2).
point(4,2).
point(2,4).
point(1,5).
point(2,5).
point(5,5).
point(1,6).
point(2,6).
point(7,0).
point(7,7).
point(0,4).
point(0,5).
point(0,7).
point(0,0).
